Set parameter TokenServer to value "hpc-licenses.hpcc.usc.edu"
Set parameter TimeLimit to value 3600
Gurobi Optimizer version 9.5.1 build v9.5.1rc2 (linux64)
Thread count: 20 physical cores, 20 logical processors, using up to 20 threads
Optimize a model with 6007 rows, 4529 columns and 24534 nonzeros
Model fingerprint: 0x3ef5e98b
Variable types: 4506 continuous, 23 integer (23 binary)
Coefficient statistics:
  Matrix range     [1e+00, 1e+00]
  Objective range  [1e-03, 1e+00]
  Bounds range     [1e+00, 1e+00]
  RHS range        [1e+00, 2e+02]
Presolve removed 1520 rows and 1515 columns
Presolve time: 0.05s
Presolved: 4487 rows, 3014 columns, 21975 nonzeros
Variable types: 2994 continuous, 20 integer (20 binary)
Found heuristic solution: objective 263.8639743

Root relaxation: objective 2.749706e+02, 3192 iterations, 0.10 seconds (0.14 work units)

    Nodes    |    Current Node    |     Objective Bounds      |     Work
 Expl Unexpl |  Obj  Depth IntInf | Incumbent    BestBd   Gap | It/Node Time

     0     0  274.97064    0    2  263.86397  274.97064  4.21%     -    0s
     0     0  274.89977    0    2  263.86397  274.89977  4.18%     -    0s
     0     0  274.82692    0    2  263.86397  274.82692  4.15%     -    0s
     0     0  274.82393    0    2  263.86397  274.82393  4.15%     -    0s
     0     0  274.79731    0    2  263.86397  274.79731  4.14%     -    0s
     0     0  274.79731    0    2  263.86397  274.79731  4.14%     -    0s
     0     0  274.70450    0    2  263.86397  274.70450  4.11%     -    0s
H    0     0                     264.5708188  274.66581  3.82%     -    0s
     0     0  274.14259    0    2  264.57082  274.14259  3.62%     -    0s
     0     0  274.14259    0    2  264.57082  274.14259  3.62%     -    0s
     0     0  274.12650    0    2  264.57082  274.12650  3.61%     -    0s
     0     0  274.12650    0    2  264.57082  274.12650  3.61%     -    0s
     0     0  274.12650    0    2  264.57082  274.12650  3.61%     -    0s
     0     2  274.12650    0    2  264.57082  274.12650  3.61%     -    0s
*    6     2               3     266.4038898  272.66632  2.35%   570    2s
*   12     2               6     271.2900903  272.17530  0.33%   470    3s

Cutting planes:
  Gomory: 2
  MIR: 221
  Flow cover: 13
  RLT: 14
  Relax-and-lift: 16

Explored 25 nodes (10648 simplex iterations) in 4.04 seconds (1.71 work units)
Thread count was 20 (of 20 available processors)

Solution count 4: 271.29 266.404 264.571 263.864 

Optimal solution found (tolerance 1.00e-04)
Best objective 2.712900903211e+02, best bound 2.712900903211e+02, gap 0.0000%



#########node  1
V1.7
#########node  2
0.0,1.0
#########node  3
0.934844192634561,0.06515580736543902


Total Solving Time 4.386093854904175
obj value 271.2900903211217
Policy Regret train (Sum) 9.912030792665206
Best Treatment Found train (%) 57.599999999999994
treatment classification acc train (%) 72.8
Policy Regret test (Sum) 38.72832714295484
Best Treatment Found test (%) 81.04
treatment classification acc test (%) 74.56
